60
3 0 12
3 1 4
4 1 11
4 2 12
5 3 10
5 4 6
6 0 6
6 2 7
6 3 11
6 5 5
7 0 10
7 1 11
7 2 1
7 5 12
7 6 10
8 0 4
8 2 9
8 3 12
8 6 8
8 7 2
9 1 3
9 2 9
9 4 7
9 8 8
10 0 1
10 1 5
10 4 13
10 6 9
10 7 13
10 8 4
11 0 5
11 1 10
11 4 12
11 6 10
11 8 11
11 9 11
12 0 2
12 3 13
12 5 4
12 8 1
12 10 9
13 0 7
13 3 9
13 5 2
13 7 10
13 11 1
14 0 9
14 2 2
14 3 5
14 7 8
14 9 5
14 11 10
14 13 13
15 0 7
15 1 10
15 2 13
15 3 12
15 5 10
15 6 13
15 13 5
16 0 1
16 1 8
16 10 6
16 15 3
17 0 3
17 1 1
17 3 5
17 6 2
17 7 11
17 9 9
17 10 2
17 11 1
17 16 5
18 2 7
18 3 3
18 6 8
18 7 13
18 9 11
18 12 13
18 13 10
18 14 3
18 15 3
18 16 9
18 17 3
19 0 12
19 4 5
19 9 13
19 13 10
19 15 12
19 18 9
20 1 4
20 5 9
20 6 5
20 10 7
20 11 8
20 12 12
20 13 12
20 15 9
20 16 10
20 17 1
21 0 3
21 1 5
21 2 7
21 3 1
21 4 12
21 5 12
21 7 7
21 8 12
21 9 10
21 13 9
21 15 11
21 17 6
22 0 10
22 2 2
22 6 9
22 8 5
22 9 11
22 10 12
22 12 2
22 13 7
22 16 12
22 18 4
23 0 11
23 2 2
23 4 6
23 13 3
23 14 8
23 15 13
23 20 5
23 21 1
24 0 8
24 1 8
24 2 6
24 6 3
24 8 10
24 9 13
24 14 6
24 15 4
24 16 1
24 18 2
24 19 9
24 20 6
24 22 8
25 0 9
25 3 3
25 4 9
25 6 6
25 7 12
25 8 13
25 9 1
25 10 1
25 11 10
25 12 9
25 13 6
25 14 5
25 15 7
25 16 7
25 17 2
25 18 1
25 20 13
25 21 6
25 22 7
25 23 11
26 0 13
26 2 3
26 3 2
26 6 6
26 8 5
26 11 6
26 12 8
26 13 6
26 14 9
26 15 2
26 16 12
26 17 12
26 18 2
26 22 12
26 23 7
26 25 9
27 1 5
27 2 2
27 7 2
27 10 4
27 11 1
27 12 8
27 15 12
27 17 13
27 18 2
27 24 4
27 25 10
27 26 7
28 1 5
28 2 7
28 3 5
28 7 12
28 8 7
28 13 1
28 17 2
28 18 1
28 22 13
28 24 10
28 25 3
28 27 5
29 1 10
29 2 10
29 3 7
29 5 11
29 7 3
29 8 13
29 11 7
29 13 6
29 14 3
29 16 3
29 20 13
29 21 8
29 22 7
29 23 12
29 26 1
29 27 1
29 28 7
30 4 11
30 6 7
30 7 12
30 9 13
30 11 9
30 14 1
30 15 8
30 16 8
30 17 12
30 19 4
30 22 10
30 23 9
30 24 13
30 25 11
30 26 11
30 28 3
31 2 13
31 3 11
31 9 4
31 14 2
31 15 2
31 23 3
31 24 1
31 29 11
32 7 7
32 8 3
32 10 9
32 11 8
32 12 1
32 13 8
32 16 11
32 18 1
32 19 8
32 20 7
32 21 8
32 22 2
32 23 7
32 24 4
32 25 12
32 27 10
32 29 5
32 30 7
33 0 7
33 8 8
33 9 2
33 10 8
33 13 6
33 14 7
33 15 4
33 16 1
33 18 9
33 19 9
33 21 2
33 22 6
33 23 4
33 25 4
33 28 10
33 29 6
33 30 10
33 31 13
33 32 12
34 0 6
34 1 2
34 4 6
34 7 6
34 8 12
34 13 12
34 15 8
34 16 12
34 20 9
34 21 13
34 25 13
34 27 11
34 30 13
34 33 2
35 0 5
35 1 7
35 2 4
35 4 3
35 5 11
35 9 1
35 10 13
35 11 7
35 18 8
35 20 4
35 21 12
35 22 8
35 23 3
35 30 12
35 31 6
35 33 7
35 34 11
36 0 11
36 1 2
36 2 7
36 3 3
36 6 2
36 7 9
36 8 7
36 9 1
36 11 3
36 12 1
36 13 5
36 14 7
36 16 7
36 17 2
36 18 4
36 19 8
36 20 9
36 22 2
36 23 3
36 25 9
36 26 6
36 28 1
36 32 12
36 33 2
36 35 8
37 0 12
37 3 9
37 4 13
37 6 7
37 8 6
37 10 3
37 11 11
37 12 7
37 13 9
37 15 3
37 20 10
37 21 2
37 24 4
37 26 1
37 27 5
37 28 12
37 29 11
37 30 11
37 33 7
37 34 6
38 2 10
38 4 4
38 6 9
38 8 13
38 10 11
38 12 4
38 14 5
38 17 2
38 20 8
38 21 2
38 22 6
38 23 11
38 24 2
38 25 6
38 29 10
38 30 1
38 31 1
38 33 1
38 35 4
38 37 8
39 0 13
39 5 11
39 6 1
39 7 11
39 8 11
39 10 3
39 11 9
39 14 13
39 16 1
39 17 6
39 18 11
39 19 1
39 20 10
39 21 8
39 26 4
39 28 9
39 31 9
39 33 6
39 35 11
39 36 3
40 0 8
40 3 5
40 5 2
40 6 8
40 7 3
40 8 7
40 10 5
40 11 1
40 12 11
40 14 7
40 16 10
40 22 12
40 23 13
40 24 5
40 25 2
40 26 6
40 30 3
40 34 2
40 35 1
40 37 2
40 39 13
41 0 11
41 1 12
41 3 6
41 4 4
41 5 5
41 6 6
41 8 7
41 9 5
41 10 10
41 11 10
41 18 12
41 20 3
41 21 2
41 24 12
41 25 8
41 27 10
41 28 8
41 29 5
41 31 5
41 32 2
41 35 5
41 38 8
41 39 4
41 40 4
42 3 12
42 4 6
42 6 11
42 9 1
42 10 4
42 11 8
42 12 6
42 13 1
42 15 12
42 17 9
42 18 9
42 19 8
42 20 13
42 24 4
42 25 6
42 26 8
42 29 6
42 31 11
42 33 13
42 35 9
42 38 4
42 40 12
42 41 5
43 0 2
43 1 3
43 3 7
43 4 10
43 13 13
43 14 10
43 15 3
43 16 1
43 18 3
43 19 6
43 25 9
43 27 2
43 30 2
43 31 3
43 32 10
43 35 8
43 37 4
43 38 2
43 39 13
43 40 3
43 42 7
44 3 2
44 6 5
44 9 4
44 10 6
44 11 4
44 12 12
44 13 4
44 15 2
44 17 3
44 19 7
44 20 8
44 22 4
44 25 11
44 29 3
44 30 6
44 31 7
44 32 12
44 33 10
44 37 8
44 38 12
44 40 2
44 41 3
45 1 10
45 3 7
45 5 13
45 7 9
45 10 13
45 11 3
45 12 9
45 14 4
45 16 6
45 17 12
45 19 1
45 21 8
45 24 6
45 26 12
45 28 5
45 30 5
45 31 10
45 32 3
45 35 3
45 36 5
45 37 7
45 39 5
45 43 5
45 44 11
46 0 5
46 3 7
46 6 3
46 8 11
46 9 12
46 15 5
46 16 2
46 17 6
46 18 4
46 20 7
46 21 12
46 27 4
46 29 13
46 33 13
46 36 5
46 37 9
46 38 6
46 39 6
46 42 9
46 43 2
47 0 10
47 4 4
47 7 6
47 11 2
47 12 10
47 17 1
47 18 10
47 22 11
47 24 13
47 26 9
47 29 5
47 30 1
47 31 8
47 32 9
47 33 4
47 34 10
47 35 10
47 38 6
47 39 1
47 42 4
47 43 5
47 44 2
47 45 3
47 46 12
48 2 4
48 3 4
48 5 2
48 7 12
48 11 1
48 12 7
48 13 3
48 15 3
48 16 11
48 17 13
48 20 3
48 22 13
48 23 1
48 26 12
48 27 1
48 28 3
48 33 11
48 36 1
48 37 12
48 41 13
48 43 7
48 44 2
48 46 11
49 2 10
49 10 6
49 11 3
49 16 1
49 17 6
49 18 5
49 19 2
49 20 7
49 21 2
49 22 3
49 24 5
49 30 9
49 31 8
49 33 7
49 35 3
49 37 5
49 38 7
49 40 3
49 41 7
49 44 13
49 45 13
49 46 9
49 47 10
50 0 5
50 1 11
50 3 5
50 4 8
50 5 10
50 14 4
50 16 12
50 17 10
50 18 12
50 21 6
50 22 13
50 30 11
50 33 9
50 34 6
50 37 4
50 38 11
50 42 3
50 45 10
51 0 6
51 1 2
51 9 8
51 10 11
51 15 13
51 16 13
51 17 8
51 19 8
51 22 11
51 26 3
51 27 5
51 28 6
51 32 7
51 33 10
51 38 13
51 40 3
51 42 1
51 43 7
51 46 5
51 48 9
51 49 12
52 4 5
52 7 12
52 9 9
52 10 1
52 11 12
52 13 9
52 19 10
52 23 3
52 24 5
52 26 13
52 28 13
52 29 1
52 31 11
52 33 10
52 34 12
52 35 10
52 36 4
52 37 1
52 38 4
52 40 4
52 41 3
52 43 11
52 45 4
52 47 13
52 50 5
53 1 8
53 10 11
53 13 7
53 15 5
53 16 3
53 21 9
53 24 10
53 25 12
53 26 3
53 28 6
53 29 12
53 35 9
53 36 10
53 41 12
53 42 5
53 44 6
53 46 4
53 48 6
53 49 13
53 52 13
54 2 12
54 3 8
54 4 3
54 5 2
54 7 8
54 8 1
54 11 2
54 12 3
54 13 5
54 14 1
54 15 5
54 17 6
54 19 9
54 20 5
54 21 8
54 22 9
54 23 4
54 25 13
54 26 13
54 27 2
54 28 13
54 33 1
54 34 13
54 35 3
54 37 3
54 39 7
54 42 3
54 44 1
54 46 2
54 47 3
54 48 3
54 49 4
54 51 12
55 0 8
55 3 9
55 5 4
55 8 12
55 9 10
55 11 11
55 12 7
55 14 4
55 15 2
55 17 8
55 18 11
55 19 8
55 23 13
55 25 10
55 28 2
55 30 9
55 31 1
55 32 6
55 33 12
55 34 2
55 35 4
55 37 7
55 38 2
55 39 5
55 41 3
55 43 11
55 45 2
55 47 9
55 51 9
55 54 9
56 0 6
56 1 13
56 2 2
56 4 2
56 7 11
56 8 6
56 13 5
56 15 5
56 18 5
56 19 6
56 22 8
56 23 7
56 25 8
56 26 8
56 27 6
56 30 7
56 31 8
56 33 7
56 34 3
56 35 5
56 36 12
56 37 9
56 38 11
56 39 2
56 44 4
56 49 4
56 50 11
56 53 10
57 0 9
57 2 5
57 3 2
57 4 7
57 5 5
57 7 6
57 10 13
57 13 2
57 14 12
57 15 5
57 16 6
57 18 9
57 20 9
57 21 4
57 22 11
57 26 3
57 29 5
57 31 2
57 32 3
57 33 3
57 42 6
57 44 4
57 46 7
57 48 10
57 52 4
57 53 5
57 54 8
57 55 12
57 56 11
58 2 3
58 4 12
58 5 5
58 7 1
58 11 3
58 12 12
58 13 3
58 15 4
58 21 1
58 23 6
58 24 1
58 26 6
58 28 1
58 29 13
58 30 3
58 32 5
58 33 8
58 35 6
58 36 3
58 37 5
58 41 3
58 43 2
58 44 1
58 49 8
58 50 1
58 52 2
58 54 8
58 55 10
58 57 1
59 1 4
59 6 3
59 8 2
59 9 8
59 10 8
59 16 2
59 22 5
59 23 2
59 24 1
59 27 1
59 28 9
59 29 2
59 31 7
59 36 5
59 37 2
59 38 1
59 39 9
59 41 8
59 42 1
59 43 13
59 45 7
59 46 8
59 47 11
59 52 13
59 53 10
59 58 3
